(declare-fun ExpandObjSwitcher () Real)
(declare-fun Constructed_Argument_t () String)
(declare-fun CreateAsClass () Bool)
(declare-fun Constructed_Argument () String)
(declare-fun |IsMatch_/BSx1BBS[BSd+m/_0| () Bool)
(declare-fun Constructed_Argument_2_t () String)
(declare-fun Constructed_Argument_3_t () String)
(declare-fun Constructed_Argument_4_t () String)
(declare-fun Constructed_Argument_5_t () String)
(declare-fun Constructed_Argument_6_t () String)
(declare-fun Constructed_Argument_7_t () String)
(declare-fun Constructed_Argument_8_t () String)
(declare-fun Constructed_Argument_9_t () String)
(declare-fun Constructed_Argument_10_t () String)
(declare-fun Constructed_Argument_11_t () String)
(declare-fun Constructed_Argument_12_t () String)
(declare-fun Constructed_Argument_13_t () String)
(declare-fun Constructed_Argument_14_t () String)
(declare-fun Constructed_Argument_15_t () String)
(declare-fun Constructed_Argument_16_t () String)
(declare-fun CreateAsClass_2 () Bool)
(assert (= ExpandObjSwitcher 3.0))
(assert (= Constructed_Argument_t "string"))
(assert (not CreateAsClass))
(assert (not (str.in.re Constructed_Argument (re.++ (re.* (re.range "\x00" "\xff")) (str.to.re "\x1B[") (re.range "0" "9") (re.* (re.range "0" "9")) (str.to.re "m") (re.* (re.range "\x00" "\xff"))))))
(assert (not |IsMatch_/BSx1BBS[BSd+m/_0|))
(assert (not (<= (to_real (str.len Constructed_Argument)) 0.0)))
(assert (not (= Constructed_Argument_2_t "string")))
(assert (not (= Constructed_Argument_2_t "number")))
(assert (not (= Constructed_Argument_2_t "boolean")))
(assert (not (= Constructed_Argument_2_t "object")))
(assert (not (= Constructed_Argument_2_t "array_number")))
(assert (not (= Constructed_Argument_2_t "array_string")))
(assert (not (= Constructed_Argument_2_t "array_bool")))
(assert (not (= Constructed_Argument_2_t "null")))
(assert (not (<= (to_real (str.len Constructed_Argument)) 1.0)))
(assert (not (= Constructed_Argument_3_t "string")))
(assert (not (= Constructed_Argument_3_t "number")))
(assert (not (= Constructed_Argument_3_t "boolean")))
(assert (not (= Constructed_Argument_3_t "object")))
(assert (not (= Constructed_Argument_3_t "array_number")))
(assert (not (= Constructed_Argument_3_t "array_string")))
(assert (not (= Constructed_Argument_3_t "array_bool")))
(assert (not (= Constructed_Argument_3_t "null")))
(assert (not (<= (to_real (str.len Constructed_Argument)) 2.0)))
(assert (not (= Constructed_Argument_4_t "string")))
(assert (not (= Constructed_Argument_4_t "number")))
(assert (not (= Constructed_Argument_4_t "boolean")))
(assert (not (= Constructed_Argument_4_t "object")))
(assert (not (= Constructed_Argument_4_t "array_number")))
(assert (not (= Constructed_Argument_4_t "array_string")))
(assert (not (= Constructed_Argument_4_t "array_bool")))
(assert (not (= Constructed_Argument_4_t "null")))
(assert (not (<= (to_real (str.len Constructed_Argument)) 3.0)))
(assert (not (= Constructed_Argument_5_t "string")))
(assert (not (= Constructed_Argument_5_t "number")))
(assert (not (= Constructed_Argument_5_t "boolean")))
(assert (not (= Constructed_Argument_5_t "object")))
(assert (not (= Constructed_Argument_5_t "array_number")))
(assert (not (= Constructed_Argument_5_t "array_string")))
(assert (not (= Constructed_Argument_5_t "array_bool")))
(assert (not (= Constructed_Argument_5_t "null")))
(assert (not (<= (to_real (str.len Constructed_Argument)) 4.0)))
(assert (not (= Constructed_Argument_6_t "string")))
(assert (not (= Constructed_Argument_6_t "number")))
(assert (not (= Constructed_Argument_6_t "boolean")))
(assert (not (= Constructed_Argument_6_t "object")))
(assert (not (= Constructed_Argument_6_t "array_number")))
(assert (not (= Constructed_Argument_6_t "array_string")))
(assert (not (= Constructed_Argument_6_t "array_bool")))
(assert (not (= Constructed_Argument_6_t "null")))
(assert (not (<= (to_real (str.len Constructed_Argument)) 5.0)))
(assert (not (= Constructed_Argument_7_t "string")))
(assert (not (= Constructed_Argument_7_t "number")))
(assert (not (= Constructed_Argument_7_t "boolean")))
(assert (not (= Constructed_Argument_7_t "object")))
(assert (not (= Constructed_Argument_7_t "array_number")))
(assert (not (= Constructed_Argument_7_t "array_string")))
(assert (not (= Constructed_Argument_7_t "array_bool")))
(assert (not (= Constructed_Argument_7_t "null")))
(assert (not (<= (to_real (str.len Constructed_Argument)) 6.0)))
(assert (not (= Constructed_Argument_8_t "string")))
(assert (not (= Constructed_Argument_8_t "number")))
(assert (not (= Constructed_Argument_8_t "boolean")))
(assert (not (= Constructed_Argument_8_t "object")))
(assert (not (= Constructed_Argument_8_t "array_number")))
(assert (not (= Constructed_Argument_8_t "array_string")))
(assert (not (= Constructed_Argument_8_t "array_bool")))
(assert (not (= Constructed_Argument_8_t "null")))
(assert (not (<= (to_real (str.len Constructed_Argument)) 7.0)))
(assert (not (= Constructed_Argument_9_t "string")))
(assert (not (= Constructed_Argument_9_t "number")))
(assert (not (= Constructed_Argument_9_t "boolean")))
(assert (not (= Constructed_Argument_9_t "object")))
(assert (not (= Constructed_Argument_9_t "array_number")))
(assert (not (= Constructed_Argument_9_t "array_string")))
(assert (not (= Constructed_Argument_9_t "array_bool")))
(assert (not (= Constructed_Argument_9_t "null")))
(assert (not (<= (to_real (str.len Constructed_Argument)) 8.0)))
(assert (not (= Constructed_Argument_10_t "string")))
(assert (not (= Constructed_Argument_10_t "number")))
(assert (not (= Constructed_Argument_10_t "boolean")))
(assert (not (= Constructed_Argument_10_t "object")))
(assert (not (= Constructed_Argument_10_t "array_number")))
(assert (not (= Constructed_Argument_10_t "array_string")))
(assert (not (= Constructed_Argument_10_t "array_bool")))
(assert (not (= Constructed_Argument_10_t "null")))
(assert (not (<= (to_real (str.len Constructed_Argument)) 9.0)))
(assert (not (= Constructed_Argument_11_t "string")))
(assert (not (= Constructed_Argument_11_t "number")))
(assert (not (= Constructed_Argument_11_t "boolean")))
(assert (not (= Constructed_Argument_11_t "object")))
(assert (not (= Constructed_Argument_11_t "array_number")))
(assert (not (= Constructed_Argument_11_t "array_string")))
(assert (not (= Constructed_Argument_11_t "array_bool")))
(assert (not (= Constructed_Argument_11_t "null")))
(assert (not (<= (to_real (str.len Constructed_Argument)) 10.0)))
(assert (not (= Constructed_Argument_12_t "string")))
(assert (not (= Constructed_Argument_12_t "number")))
(assert (not (= Constructed_Argument_12_t "boolean")))
(assert (not (= Constructed_Argument_12_t "object")))
(assert (not (= Constructed_Argument_12_t "array_number")))
(assert (not (= Constructed_Argument_12_t "array_string")))
(assert (not (= Constructed_Argument_12_t "array_bool")))
(assert (not (= Constructed_Argument_12_t "null")))
(assert (not (<= (to_real (str.len Constructed_Argument)) 11.0)))
(assert (not (= Constructed_Argument_13_t "string")))
(assert (not (= Constructed_Argument_13_t "number")))
(assert (not (= Constructed_Argument_13_t "boolean")))
(assert (not (= Constructed_Argument_13_t "object")))
(assert (not (= Constructed_Argument_13_t "array_number")))
(assert (not (= Constructed_Argument_13_t "array_string")))
(assert (not (= Constructed_Argument_13_t "array_bool")))
(assert (not (= Constructed_Argument_13_t "null")))
(assert (not (<= (to_real (str.len Constructed_Argument)) 12.0)))
(assert (not (= Constructed_Argument_14_t "string")))
(assert (not (= Constructed_Argument_14_t "number")))
(assert (not (= Constructed_Argument_14_t "boolean")))
(assert (not (= Constructed_Argument_14_t "object")))
(assert (not (= Constructed_Argument_14_t "array_number")))
(assert (not (= Constructed_Argument_14_t "array_string")))
(assert (not (= Constructed_Argument_14_t "array_bool")))
(assert (not (= Constructed_Argument_14_t "null")))
(assert (not (<= (to_real (str.len Constructed_Argument)) 13.0)))
(assert (not (= Constructed_Argument_15_t "string")))
(assert (not (= Constructed_Argument_15_t "number")))
(assert (not (= Constructed_Argument_15_t "boolean")))
(assert (not (= Constructed_Argument_15_t "object")))
(assert (not (= Constructed_Argument_15_t "array_number")))
(assert (not (= Constructed_Argument_15_t "array_string")))
(assert (not (= Constructed_Argument_15_t "array_bool")))
(assert (not (= Constructed_Argument_15_t "null")))
(assert (not (<= (to_real (str.len Constructed_Argument)) 14.0)))
(assert (not (= Constructed_Argument_16_t "string")))
(assert (not (= Constructed_Argument_16_t "number")))
(assert (not (= Constructed_Argument_16_t "boolean")))
(assert (not (= Constructed_Argument_16_t "object")))
(assert (not (= Constructed_Argument_16_t "array_number")))
(assert (not (= Constructed_Argument_16_t "array_string")))
(assert (not (= Constructed_Argument_16_t "array_bool")))
(assert (not (= Constructed_Argument_16_t "null")))
(assert (<= (to_real (str.len Constructed_Argument)) 15.0))
(assert CreateAsClass_2)
(check-sat)
